# Solution for model FSG
# Objective value = 8.8540819816982457e+02
x_0_1 1
x_0_2 0
x_0_3 0
x_0_4 1
x_0_5 1
x_0_6 0
x_0_7 0
x_0_8 0
x_1_2 0
x_1_3 0
x_1_4 0
x_1_5 0
x_1_6 0
x_1_7 0
x_1_8 1
x_2_1 0
x_2_3 0
x_2_4 0
x_2_5 0
x_2_6 1
x_2_7 0
x_2_8 0
x_3_1 0
x_3_2 0
x_3_4 0
x_3_5 0
x_3_6 0
x_3_7 1
x_3_8 0
x_4_1 0
x_4_2 1
x_4_3 0
x_4_5 0
x_4_6 0
x_4_7 0
x_4_8 0
x_5_1 0
x_5_2 0
x_5_3 1
x_5_4 0
x_5_6 0
x_5_7 0
x_5_8 0
U_1_1 0
U_1_2 0
U_1_3 1
U_2_1 1
U_2_2 0
U_2_3 0
U_3_1 0
U_3_2 1
U_3_3 0
U_4_1 1
U_4_2 0
U_4_3 0
U_5_1 0
U_5_2 1
U_5_3 0
U_6_1 0
U_6_2 0
U_6_3 1
U_7_1 0
U_7_2 0
U_7_3 1
U_8_1 0
U_8_2 0
U_8_3 1
TBar_0 0
TBar_1 20
TBar_2 10
TBar_3 20
TBar_4 7.80544681616626
TBar_5 10
TBar_6 2.9237602502814244e+01
TBar_7 2.8926455063461642e+01
TBar_8 2.4661544808322667e+01
y_0_1_1 0
y_0_1_2 0
y_0_1_3 0
y_0_1_4 0
y_0_1_5 0
y_0_2_1 0
y_0_2_2 0
y_0_2_3 0
y_0_2_4 0
y_0_2_5 0
y_0_3_1 0
y_0_3_2 0
y_0_3_3 0
y_0_3_4 0
y_0_3_5 0
y_0_4_1 0
y_0_4_2 0
y_0_4_3 0
y_0_4_4 0
y_0_4_5 0
y_0_5_1 0
y_0_5_2 0
y_0_5_3 0
y_0_5_4 0
y_0_5_5 0
y_0_6_1 0
y_0_6_2 0
y_0_6_3 0
y_0_6_4 0
y_0_6_5 0
y_0_7_1 0
y_0_7_2 0
y_0_7_3 0
y_0_7_4 0
y_0_7_5 0
y_0_8_1 0
y_0_8_2 0
y_0_8_3 0
y_0_8_4 0
y_0_8_5 0
y_1_2_1 0
y_1_2_2 0
y_1_2_3 0
y_1_2_4 0
y_1_2_5 0
y_1_3_1 0
y_1_3_2 0
y_1_3_3 0
y_1_3_4 0
y_1_3_5 0
y_1_4_1 0
y_1_4_2 0
y_1_4_3 0
y_1_4_4 0
y_1_4_5 0
y_1_5_1 0
y_1_5_2 0
y_1_5_3 0
y_1_5_4 0
y_1_5_5 0
y_1_6_1 0
y_1_6_2 0
y_1_6_3 0
y_1_6_4 0
y_1_6_5 0
y_1_7_1 0
y_1_7_2 0
y_1_7_3 0
y_1_7_4 0
y_1_7_5 0
y_1_8_1 0
y_1_8_2 0
y_1_8_3 0
y_1_8_4 0
y_1_8_5 0
y_2_1_1 0
y_2_1_2 0
y_2_1_3 0
y_2_1_4 0
y_2_1_5 0
y_2_3_1 0
y_2_3_2 0
y_2_3_3 0
y_2_3_4 0
y_2_3_5 0
y_2_4_1 0
y_2_4_2 0
y_2_4_3 0
y_2_4_4 0
y_2_4_5 0
y_2_5_1 0
y_2_5_2 0
y_2_5_3 0
y_2_5_4 0
y_2_5_5 0
y_2_6_1 0
y_2_6_2 1
y_2_6_3 0
y_2_6_4 1
y_2_6_5 1
y_2_7_1 0
y_2_7_2 0
y_2_7_3 0
y_2_7_4 0
y_2_7_5 0
y_2_8_1 0
y_2_8_2 0
y_2_8_3 0
y_2_8_4 0
y_2_8_5 0
y_3_1_1 0
y_3_1_2 0
y_3_1_3 0
y_3_1_4 0
y_3_1_5 0
y_3_2_1 0
y_3_2_2 0
y_3_2_3 0
y_3_2_4 0
y_3_2_5 0
y_3_4_1 0
y_3_4_2 0
y_3_4_3 0
y_3_4_4 0
y_3_4_5 0
y_3_5_1 0
y_3_5_2 0
y_3_5_3 0
y_3_5_4 0
y_3_5_5 0
y_3_6_1 0
y_3_6_2 0
y_3_6_3 0
y_3_6_4 0
y_3_6_5 0
y_3_7_1 0
y_3_7_2 1
y_3_7_3 1
y_3_7_4 1
y_3_7_5 0
y_3_8_1 0
y_3_8_2 0
y_3_8_3 0
y_3_8_4 0
y_3_8_5 0
y_4_1_1 0
y_4_1_2 0
y_4_1_3 0
y_4_1_4 0
y_4_1_5 0
y_4_2_1 0
y_4_2_2 0
y_4_2_3 0
y_4_2_4 0
y_4_2_5 0
y_4_3_1 0
y_4_3_2 0
y_4_3_3 0
y_4_3_4 0
y_4_3_5 0
y_4_5_1 0
y_4_5_2 0
y_4_5_3 0
y_4_5_4 0
y_4_5_5 0
y_4_6_1 0
y_4_6_2 0
y_4_6_3 0
y_4_6_4 0
y_4_6_5 0
y_4_7_1 0
y_4_7_2 0
y_4_7_3 0
y_4_7_4 0
y_4_7_5 0
y_4_8_1 0
y_4_8_2 0
y_4_8_3 0
y_4_8_4 0
y_4_8_5 0
y_5_1_1 0
y_5_1_2 0
y_5_1_3 0
y_5_1_4 0
y_5_1_5 0
y_5_2_1 0
y_5_2_2 0
y_5_2_3 0
y_5_2_4 0
y_5_2_5 0
y_5_3_1 0
y_5_3_2 0
y_5_3_3 0
y_5_3_4 0
y_5_3_5 0
y_5_4_1 0
y_5_4_2 0
y_5_4_3 0
y_5_4_4 0
y_5_4_5 0
y_5_6_1 0
y_5_6_2 0
y_5_6_3 0
y_5_6_4 0
y_5_6_5 0
y_5_7_1 0
y_5_7_2 0
y_5_7_3 0
y_5_7_4 0
y_5_7_5 0
y_5_8_1 0
y_5_8_2 0
y_5_8_3 0
y_5_8_4 0
y_5_8_5 0
Q_0_1 0
Q_0_2 0
Q_0_3 0
Q_0_4 0
Q_0_5 0
Q_1_1 1.0799500000000009e+02
Q_1_2 1.0551000000000006e+02
Q_1_3 1.0466500000000008e+02
Q_1_4 1.0450500000000008e+02
Q_1_5 9.6605000000000075e+01
Q_2_1 1.0853000000000073e+02
Q_2_2 115.89
Q_2_3 114.45
Q_2_4 117.09
Q_2_5 1.1024000000000071e+02
Q_3_1 1.1199000000000044e+02
Q_3_2 1.1704500000000044e+02
Q_3_3 1.1532500000000044e+02
Q_3_4 1.1233000000000044e+02
Q_3_5 1.1039500000000044e+02
Q_4_1 4.6630000000000074e+01
Q_4_2 48.8
Q_4_3 46.7
Q_4_4 51
Q_4_5 4.7430000000000071e+01
Q_5_1 5.9894999999999705e+01
Q_5_2 6.3819999999999709e+01
Q_5_3 6.3174999999999713e+01
Q_5_4 6.2684999999999711e+01
Q_5_5 61.9
Q_6_1 1.0853000000000073e+02
Q_6_2 115.89
Q_6_3 114.45
Q_6_4 117.09
Q_6_5 1.1024000000000071e+02
Q_7_1 1.1199000000000044e+02
Q_7_2 1.1704500000000044e+02
Q_7_3 1.1532500000000044e+02
Q_7_4 1.1233000000000044e+02
Q_7_5 1.1039500000000044e+02
Q_8_1 1.0799500000000009e+02
Q_8_2 1.0551000000000006e+02
Q_8_3 1.0466500000000008e+02
Q_8_4 1.0450500000000008e+02
Q_8_5 9.6605000000000075e+01
R_6_1 8.5300000000007259e+00
R_6_2 15.89
R_6_3 14.45
R_6_4 1.7090000000000003e+01
R_6_5 1.0240000000000705e+01
R_7_1 1.1990000000000437e+01
R_7_2 1.7045000000000435e+01
R_7_3 1.5325000000000436e+01
R_7_4 1.2330000000000439e+01
R_7_5 1.0395000000000440e+01
R_8_1 7.9950000000000827e+00
R_8_2 5.5100000000000655e+00
R_8_3 4.6650000000000809e+00
R_8_4 4.5050000000000772e+00
R_8_5 0
L_1_1 0
L_1_2 0
L_1_3 0
L_1_4 0
L_1_5 0
L_2_1 18.61
L_2_2 1.5879999999999999e+01
L_2_3 2.6884999999999998e+01
L_2_4 27.385
L_2_5 22.46
L_3_1 3.9
L_3_2 5.175
L_3_3 4.855
L_3_4 4.215
L_3_5 7.485
L_4_1 1.5844999999999999e+01
L_4_2 2.1514999999999997e+01
L_4_3 1.5959999999999999e+01
L_4_4 22.21
L_4_5 2.6634999999999998e+01
L_5_1 2.59
L_5_2 3.945
L_5_3 7.33
L_5_4 6.375
L_5_5 4.55
rho_1_1 1
rho_1_2 1
rho_1_3 1
rho_1_4 1
rho_1_5 0
rho_2_1 1
rho_2_2 1
rho_2_3 1
rho_2_4 1
rho_2_5 1
rho_3_1 1
rho_3_2 1
rho_3_3 1
rho_3_4 1
rho_3_5 1
rho_4_1 0
rho_4_2 0
rho_4_3 0
rho_4_4 0
rho_4_5 0
rho_5_1 0
rho_5_2 0
rho_5_3 0
rho_5_4 0
rho_5_5 0
lambd_1_1 0
lambd_1_2 0
lambd_1_3 0
lambd_1_4 0
lambd_1_5 0
lambd_2_1 0
lambd_2_2 0
lambd_2_3 0
lambd_2_4 0
lambd_2_5 0
lambd_3_1 0
lambd_3_2 0
lambd_3_3 0
lambd_3_4 0
lambd_3_5 0
lambd_4_1 0
lambd_4_2 0
lambd_4_3 0
lambd_4_4 0
lambd_4_5 0
lambd_5_1 0
lambd_5_2 0
lambd_5_3 0
lambd_5_4 0
lambd_5_5 0
alpha_1_1 0
alpha_1_2 0
alpha_1_3 0
alpha_1_4 0
alpha_1_5 0
alpha_2_1 0
alpha_2_2 1
alpha_2_3 0
alpha_2_4 1
alpha_2_5 1
alpha_3_1 0
alpha_3_2 1
alpha_3_3 1
alpha_3_4 1
alpha_3_5 0
alpha_4_1 0
alpha_4_2 0
alpha_4_3 0
alpha_4_4 0
alpha_4_5 0
alpha_5_1 0
alpha_5_2 0
alpha_5_3 0
alpha_5_4 0
alpha_5_5 0
